Maximize
  - 1.875357215888 edge_0_1_0_0 - 2.34314 edge_0_2_0_0
   - 1.91331 edge_0_3_0_0 - 2.64335 edge_0_4_0_0
   - 3.1941926451533 edge_0_5_0_0 - 2.8403304128235 edge_0_7_0_0
   - 0.70736598473076 edge_0_8_0_0 - 1.8551649234225 edge_0_9_0_0
   - 4.6553769839192 edge_0_12_0_0 - 1.7703434024551 edge_0_15_0_0
   - 2.1257147168592 edge_0_16_0_0 - 2.490175691911599 edge_0_17_0_0
   - 0.10808086840882 edge_1_2_0_0 - 0.4016569453972648 edge_1_3_0_0
   - 0.69328287245925 edge_1_4_0_0 - 0.2918292915815134 edge_1_5_0_0
   - 1.172325769066452 edge_1_8_0_0 + 0.2049756945125275 edge_1_15_0_0
   + 0.000526771 edge_1_16_0_0 + 0.1635508376761405 edge_1_17_0_0
   + 0.1734687080482565 edge_1_18_0_0 + 0.25658887083714 edge_2_1_0_0
   + 1.06372 edge_2_3_0_0 + 2.11301 edge_2_4_0_0
   + 1.029550197896 edge_2_5_0_0 + 0.14712801445581 edge_2_6_0_0
   + 0.37665952851054 edge_2_7_0_0 - 0.2087937843708 edge_2_8_0_0
   - 0.0558585002487 edge_2_9_0_0 - 0.9371463406877999 edge_2_12_0_0
   + 0.66288218369784 edge_2_13_0_0 + 0.747192590595 edge_2_14_0_0
   + 0.488638 edge_2_15_0_0 - 1.11844 edge_2_16_0_0
   - 0.499919 edge_2_17_0_0 + 0.966099 edge_2_18_0_0
   - 0.00535683751619522 edge_3_1_0_0 + 2.23857 edge_3_2_0_0
   + 1.908774693254403 edge_3_3_0_0 + 2.83125 edge_3_4_0_0
   + 2.418545775321 edge_3_5_0_0 + 0.7624415977793993 edge_3_6_0_0
   + 0.4743796150575178 edge_3_7_0_0 + 1.381259977809062 edge_3_8_0_0
   + 0.8608928895782 edge_3_9_0_0 - 0.063536719506313 edge_3_10_0_0
   - 0.0292105076468663 edge_3_12_0_0 + 2.4873631846062 edge_3_13_0_0
   + 2.0303883809 edge_3_14_0_0 - 0.012343738232711 edge_3_15_0_0
   + 0.837285 edge_3_16_0_0 - 0.4866189870174028 edge_3_17_0_0
   + 3.71311 edge_3_18_0_0 - 0.42316865169168 edge_4_1_0_0
   + 0.96402 edge_4_2_0_0 + 1.83128 edge_4_3_0_0
   + 2.082529236857 edge_4_5_0_0 + 0.5802282592696499 edge_4_6_0_0
   + 0.20866969839144 edge_4_7_0_0 + 0.35752704856497 edge_4_8_0_0
   + 0.3694005976918001 edge_4_9_0_0 - 0.47150987619944 edge_4_10_0_0
   - 0.65615243835348 edge_4_12_0_0 + 1.1503168481232 edge_4_13_0_0
   + 1.28789119575 edge_4_14_0_0 + 0.424514 edge_4_15_0_0
   - 0.169372 edge_4_16_0_0 + 0.0713258 edge_4_17_0_0
   + 2.26435 edge_4_18_0_0 - 1.164053029912441 edge_5_1_0_0
   - 1.2176072288303 edge_5_2_0_0 - 0.4902454080388696 edge_5_3_0_0
   - 0.75209736040103 edge_5_4_0_0 + 0.1458149014775081 edge_5_6_0_0
   - 0.2036037549173779 edge_5_7_0_0 - 0.1462029338627646 edge_5_8_0_0
   - 0.13618282004748 edge_6_2_0_0 - 0.21546312956163 edge_6_3_0_0
   + 0.06647686385496 edge_6_4_0_0 + 0.2057796166706894 edge_6_5_0_0
   + 0.8457278780860391 edge_6_6_0_0 + 0.3407697457274154 edge_6_7_0_0
   - 0.1100125005081697 edge_6_8_0_0 + 0.0436890572953062 edge_6_9_0_0
   - 0.4297633788295369 edge_6_10_0_0 + 0.3509531030071399 edge_6_18_0_0
   - 0.074472429796578 edge_7_2_0_0 + 0.25944374154732 edge_7_3_0_0
   - 0.21936647714619 edge_7_4_0_0 - 0.0510349330045828 edge_7_5_0_0
   + 0.5066210277905235 edge_7_6_0_0 + 0.8066807738720155 edge_7_8_0_0
   + 0.4112460984010148 edge_7_9_0_0 + 0.1686892500016417 edge_7_10_0_0
   + 0.1128553867966706 edge_7_12_0_0 + 0.1062454171982492 edge_7_13_0_0
   + 0.2285065021220737 edge_7_14_0_0 - 0.73889614032663 edge_7_15_0_0
   - 0.16075335661737 edge_7_16_0_0 - 0.7812344760066 edge_7_17_0_0
   - 0.47650210398978 edge_7_18_0_0 + 0.3012704058608217 edge_8_1_0_0
   + 0.25075831306635 edge_8_2_0_0 + 1.198495148782762 edge_8_3_0_0
   + 0.41255560275186 edge_8_4_0_0 + 1.087978177088325 edge_8_5_0_0
   + 0.9118286258159588 edge_8_6_0_0 + 3.085926203652818 edge_8_7_0_0
   + 3.452585625682687 edge_8_9_0_0 + 0.6451821714932234 edge_8_10_0_0
   + 3.095456910568819 edge_8_12_0_0 + 2.757468721528996 edge_8_13_0_0
   + 2.160275561527562 edge_8_14_0_0 + 1.5722259440997 edge_8_15_0_0
   + 1.71546818233913 edge_8_16_0_0 + 1.309425561722566 edge_8_17_0_0
   + 3.693421753177901 edge_8_18_0_0 - 1.386105579586491 edge_9_1_0_0
   + 0.09797683279036 edge_9_2_0_0 + 0.33240558935056 edge_9_3_0_0
   - 5.6612152682000011e-04 edge_9_4_0_0 + 0.4273161253266557 edge_9_5_0_0
   + 0.5377945257985024 edge_9_6_0_0 + 1.383216284012047 edge_9_7_0_0
   + 0.8468272430553833 edge_9_8_0_0 + 0.6811194010901405 edge_9_10_0_0
   + 1.772386107191926 edge_9_12_0_0 + 1.35819390987329 edge_9_13_0_0
   + 1.192871316808014 edge_9_14_0_0 + 0.84113459275068 edge_9_15_0_0
   + 0.7760452367028 edge_9_16_0_0 + 0.34053142451602 edge_9_17_0_0
   + 1.5359789471392 edge_9_18_0_0 + 0.2166536243555798 edge_10_9_0_0
   + 1.312564349521546 edge_10_12_0_0 + 0.0982304334386104 edge_10_13_0_0
   + 0.4915187846849177 edge_10_14_0_0 - 0.10941883804142 edge_10_15_0_0
   - 0.878260356598218 edge_10_16_0_0 - 0.7788588032781599 edge_12_2_0_0
   - 0.1661202490928962 edge_12_3_0_0 - 0.7528722081598801 edge_12_4_0_0
   - 0.3170677190461053 edge_12_5_0_0 + 0.1038827293949156 edge_12_6_0_0
   + 0.9693320139633309 edge_12_7_0_0 + 0.469634043220977 edge_12_9_0_0
   + 2.73765125324651 edge_12_10_0_0 + 1.169775985945416 edge_12_13_0_0
   + 1.189168844853344 edge_12_14_0_0 + 0.5405477134933799 edge_12_15_0_0
   + 0.1300108410516019 edge_12_16_0_0 - 0.019854916538876 edge_12_17_0_0
   + 0.34386882262272 edge_12_18_0_0 - 0.1308186575419163 edge_13_10_0_0
   - 0.4124102285174401 edge_13_12_0_0 + 0.2866314764781577 edge_13_14_0_0
   - 1.101394824542353 edge_14_10_0_0 + 0.2274679040662351 edge_14_13_0_0
   + 0.1831637520475 edge_14_15_0_0 - 0.25748636818 edge_14_16_0_0
   - 0.5547248102305433 edge_14_17_0_0 + 0.2856840889264411 edge_15_1_0_0
   - 2.1891680553274 edge_15_3_0_0 - 0.36804099861982 edge_15_9_0_0
   + 0.035501946699508 edge_15_10_0_0 - 0.5863296045322201 edge_15_12_0_0
   - 0.14948859040014 edge_15_13_0_0 + 1.0318585285282 edge_15_14_0_0
   + 1.782136414684965 edge_15_16_0_0 + 2.06284 edge_15_17_0_0
   + 2.076663691795253 edge_15_18_0_0 + 0.1225621988002922 edge_16_1_0_0
   - 0.30194429639478 edge_16_2_0_0 + 0.1370702789927574 edge_16_3_0_0
   + 0.16573328752092 edge_16_4_0_0 - 0.2806645276886 edge_16_5_0_0
   + 0.06190424220714 edge_16_6_0_0 + 0.39052165771146 edge_16_7_0_0
   + 0.2982873625213261 edge_16_9_0_0 + 1.318697609883592 edge_16_10_0_0
   + 0.7257884332176678 edge_16_12_0_0 + 0.60838133303058 edge_16_13_0_0
   + 0.4943744843373321 edge_16_14_0_0 + 1.6257 edge_16_15_0_0
   + 1.953139494150099 edge_16_16_0_0 + 2.77661631007794 edge_16_17_0_0
   + 2.23781 edge_16_18_0_0 + 0.1889593391892036 edge_17_1_0_0
   - 1.21159 edge_17_2_0_0 - 0.958966 edge_17_3_0_0 - 1.06913 edge_17_4_0_0
   + 0.3257907735045 edge_17_5_0_0 + 0.03055504989225 edge_17_6_0_0
   + 0.53735986793478 edge_17_7_0_0 - 0.19698760614306 edge_17_9_0_0
   - 0.18506046589875 edge_17_10_0_0 + 0.16077451442976 edge_17_12_0_0
   + 0.83265971850612 edge_17_13_0_0 + 0.23080783737 edge_17_14_0_0
   + 1.48373 edge_17_15_0_0 + 1.93457 edge_17_16_0_0
   + 1.76747 edge_17_18_0_0 - 1.417801538149759 edge_18_16_0_0
Subject To
 one_parent_1: edge_0_1_0_0 + edge_2_1_0_0 + edge_3_1_0_0 + edge_4_1_0_0
   + edge_5_1_0_0 + edge_8_1_0_0 + edge_9_1_0_0 + edge_15_1_0_0
   + edge_16_1_0_0 + edge_17_1_0_0 = 1
 consume_one_flow_unit_1: flow_0_1_0_0 - flow_1_2_0_0 - flow_1_3_0_0
   - flow_1_4_0_0 - flow_1_5_0_0 - flow_1_8_0_0 - flow_1_15_0_0
   - flow_1_16_0_0 - flow_1_17_0_0 - flow_1_18_0_0 + flow_2_1_0_0
   + flow_3_1_0_0 + flow_4_1_0_0 + flow_5_1_0_0 + flow_8_1_0_0
   + flow_9_1_0_0 + flow_15_1_0_0 + flow_16_1_0_0 + flow_17_1_0_0 = 1
 one_parent_2: edge_0_2_0_0 + edge_1_2_0_0 + edge_3_2_0_0 + edge_4_2_0_0
   + edge_5_2_0_0 + edge_6_2_0_0 + edge_7_2_0_0 + edge_8_2_0_0
   + edge_9_2_0_0 + edge_12_2_0_0 + edge_16_2_0_0 + edge_17_2_0_0 = 1
 consume_one_flow_unit_2: flow_0_2_0_0 + flow_1_2_0_0 - flow_2_1_0_0
   - flow_2_3_0_0 - flow_2_4_0_0 - flow_2_5_0_0 - flow_2_6_0_0
   - flow_2_7_0_0 - flow_2_8_0_0 - flow_2_9_0_0 - flow_2_12_0_0
   - flow_2_13_0_0 - flow_2_14_0_0 - flow_2_15_0_0 - flow_2_16_0_0
   - flow_2_17_0_0 - flow_2_18_0_0 + flow_3_2_0_0 + flow_4_2_0_0
   + flow_5_2_0_0 + flow_6_2_0_0 + flow_7_2_0_0 + flow_8_2_0_0
   + flow_9_2_0_0 + flow_12_2_0_0 + flow_16_2_0_0 + flow_17_2_0_0 = 1
 one_parent_3: edge_0_3_0_0 + edge_1_3_0_0 + edge_2_3_0_0 + edge_3_3_0_0
   + edge_4_3_0_0 + edge_5_3_0_0 + edge_6_3_0_0 + edge_7_3_0_0
   + edge_8_3_0_0 + edge_9_3_0_0 + edge_12_3_0_0 + edge_15_3_0_0
   + edge_16_3_0_0 + edge_17_3_0_0 = 1
 consume_one_flow_unit_3: flow_0_3_0_0 + flow_1_3_0_0 + flow_2_3_0_0
   - flow_3_1_0_0 - flow_3_2_0_0 - flow_3_4_0_0 - flow_3_5_0_0
   - flow_3_6_0_0 - flow_3_7_0_0 - flow_3_8_0_0 - flow_3_9_0_0
   - flow_3_10_0_0 - flow_3_12_0_0 - flow_3_13_0_0 - flow_3_14_0_0
   - flow_3_15_0_0 - flow_3_16_0_0 - flow_3_17_0_0 - flow_3_18_0_0
   + flow_4_3_0_0 + flow_5_3_0_0 + flow_6_3_0_0 + flow_7_3_0_0
   + flow_8_3_0_0 + flow_9_3_0_0 + flow_12_3_0_0 + flow_15_3_0_0
   + flow_16_3_0_0 + flow_17_3_0_0 = 1
 one_parent_4: edge_0_4_0_0 + edge_1_4_0_0 + edge_2_4_0_0 + edge_3_4_0_0
   + edge_5_4_0_0 + edge_6_4_0_0 + edge_7_4_0_0 + edge_8_4_0_0
   + edge_9_4_0_0 + edge_12_4_0_0 + edge_16_4_0_0 + edge_17_4_0_0 = 1
 consume_one_flow_unit_4: flow_0_4_0_0 + flow_1_4_0_0 + flow_2_4_0_0
   + flow_3_4_0_0 - flow_4_1_0_0 - flow_4_2_0_0 - flow_4_3_0_0
   - flow_4_5_0_0 - flow_4_6_0_0 - flow_4_7_0_0 - flow_4_8_0_0
   - flow_4_9_0_0 - flow_4_10_0_0 - flow_4_12_0_0 - flow_4_13_0_0
   - flow_4_14_0_0 - flow_4_15_0_0 - flow_4_16_0_0 - flow_4_17_0_0
   - flow_4_18_0_0 + flow_5_4_0_0 + flow_6_4_0_0 + flow_7_4_0_0
   + flow_8_4_0_0 + flow_9_4_0_0 + flow_12_4_0_0 + flow_16_4_0_0
   + flow_17_4_0_0 = 1
 one_parent_5: edge_0_5_0_0 + edge_1_5_0_0 + edge_2_5_0_0 + edge_3_5_0_0
   + edge_4_5_0_0 + edge_6_5_0_0 + edge_7_5_0_0 + edge_8_5_0_0
   + edge_9_5_0_0 + edge_12_5_0_0 + edge_16_5_0_0 + edge_17_5_0_0 = 1
 consume_one_flow_unit_5: flow_0_5_0_0 + flow_1_5_0_0 + flow_2_5_0_0
   + flow_3_5_0_0 + flow_4_5_0_0 - flow_5_1_0_0 - flow_5_2_0_0
   - flow_5_3_0_0 - flow_5_4_0_0 - flow_5_6_0_0 - flow_5_7_0_0
   - flow_5_8_0_0 + flow_6_5_0_0 + flow_7_5_0_0 + flow_8_5_0_0
   + flow_9_5_0_0 + flow_12_5_0_0 + flow_16_5_0_0 + flow_17_5_0_0 = 1
 one_parent_6: edge_2_6_0_0 + edge_3_6_0_0 + edge_4_6_0_0 + edge_5_6_0_0
   + edge_6_6_0_0 + edge_7_6_0_0 + edge_8_6_0_0 + edge_9_6_0_0
   + edge_12_6_0_0 + edge_16_6_0_0 + edge_17_6_0_0 = 1
 consume_one_flow_unit_6: flow_2_6_0_0 + flow_3_6_0_0 + flow_4_6_0_0
   + flow_5_6_0_0 - flow_6_2_0_0 - flow_6_3_0_0 - flow_6_4_0_0
   - flow_6_5_0_0 - flow_6_7_0_0 - flow_6_8_0_0 - flow_6_9_0_0
   - flow_6_10_0_0 - flow_6_18_0_0 + flow_7_6_0_0 + flow_8_6_0_0
   + flow_9_6_0_0 + flow_12_6_0_0 + flow_16_6_0_0 + flow_17_6_0_0 = 1
 one_parent_7: edge_0_7_0_0 + edge_2_7_0_0 + edge_3_7_0_0 + edge_4_7_0_0
   + edge_5_7_0_0 + edge_6_7_0_0 + edge_8_7_0_0 + edge_9_7_0_0
   + edge_12_7_0_0 + edge_16_7_0_0 + edge_17_7_0_0 = 1
 consume_one_flow_unit_7: flow_0_7_0_0 + flow_2_7_0_0 + flow_3_7_0_0
   + flow_4_7_0_0 + flow_5_7_0_0 + flow_6_7_0_0 - flow_7_2_0_0
   - flow_7_3_0_0 - flow_7_4_0_0 - flow_7_5_0_0 - flow_7_6_0_0
   - flow_7_8_0_0 - flow_7_9_0_0 - flow_7_10_0_0 - flow_7_12_0_0
   - flow_7_13_0_0 - flow_7_14_0_0 - flow_7_15_0_0 - flow_7_16_0_0
   - flow_7_17_0_0 - flow_7_18_0_0 + flow_8_7_0_0 + flow_9_7_0_0
   + flow_12_7_0_0 + flow_16_7_0_0 + flow_17_7_0_0 = 1
 one_parent_8: edge_0_8_0_0 + edge_1_8_0_0 + edge_2_8_0_0 + edge_3_8_0_0
   + edge_4_8_0_0 + edge_5_8_0_0 + edge_6_8_0_0 + edge_7_8_0_0
   + edge_9_8_0_0 = 1
 consume_one_flow_unit_8: flow_0_8_0_0 + flow_1_8_0_0 + flow_2_8_0_0
   + flow_3_8_0_0 + flow_4_8_0_0 + flow_5_8_0_0 + flow_6_8_0_0
   + flow_7_8_0_0 - flow_8_1_0_0 - flow_8_2_0_0 - flow_8_3_0_0
   - flow_8_4_0_0 - flow_8_5_0_0 - flow_8_6_0_0 - flow_8_7_0_0
   - flow_8_9_0_0 - flow_8_10_0_0 - flow_8_12_0_0 - flow_8_13_0_0
   - flow_8_14_0_0 - flow_8_15_0_0 - flow_8_16_0_0 - flow_8_17_0_0
   - flow_8_18_0_0 + flow_9_8_0_0 = 1
 one_parent_9: edge_0_9_0_0 + edge_2_9_0_0 + edge_3_9_0_0 + edge_4_9_0_0
   + edge_6_9_0_0 + edge_7_9_0_0 + edge_8_9_0_0 + edge_10_9_0_0
   + edge_12_9_0_0 + edge_15_9_0_0 + edge_16_9_0_0 + edge_17_9_0_0 = 1
 consume_one_flow_unit_9: flow_0_9_0_0 + flow_2_9_0_0 + flow_3_9_0_0
   + flow_4_9_0_0 + flow_6_9_0_0 + flow_7_9_0_0 + flow_8_9_0_0
   - flow_9_1_0_0 - flow_9_2_0_0 - flow_9_3_0_0 - flow_9_4_0_0
   - flow_9_5_0_0 - flow_9_6_0_0 - flow_9_7_0_0 - flow_9_8_0_0
   - flow_9_10_0_0 - flow_9_12_0_0 - flow_9_13_0_0 - flow_9_14_0_0
   - flow_9_15_0_0 - flow_9_16_0_0 - flow_9_17_0_0 - flow_9_18_0_0
   + flow_10_9_0_0 + flow_12_9_0_0 + flow_15_9_0_0 + flow_16_9_0_0
   + flow_17_9_0_0 = 1
 one_parent_10: edge_3_10_0_0 + edge_4_10_0_0 + edge_6_10_0_0
   + edge_7_10_0_0 + edge_8_10_0_0 + edge_9_10_0_0 + edge_12_10_0_0
   + edge_13_10_0_0 + edge_14_10_0_0 + edge_15_10_0_0 + edge_16_10_0_0
   + edge_17_10_0_0 = 1
 consume_one_flow_unit_10: flow_3_10_0_0 + flow_4_10_0_0 + flow_6_10_0_0
   + flow_7_10_0_0 + flow_8_10_0_0 + flow_9_10_0_0 - flow_10_9_0_0
   - flow_10_12_0_0 - flow_10_13_0_0 - flow_10_14_0_0 - flow_10_15_0_0
   - flow_10_16_0_0 + flow_12_10_0_0 + flow_13_10_0_0 + flow_14_10_0_0
   + flow_15_10_0_0 + flow_16_10_0_0 + flow_17_10_0_0 = 1
 one_parent_11: = 1
 consume_one_flow_unit_11: = 1
 one_parent_12: edge_0_12_0_0 + edge_2_12_0_0 + edge_3_12_0_0
   + edge_4_12_0_0 + edge_7_12_0_0 + edge_8_12_0_0 + edge_9_12_0_0
   + edge_10_12_0_0 + edge_13_12_0_0 + edge_15_12_0_0 + edge_16_12_0_0
   + edge_17_12_0_0 = 1
 consume_one_flow_unit_12: flow_0_12_0_0 + flow_2_12_0_0 + flow_3_12_0_0
   + flow_4_12_0_0 + flow_7_12_0_0 + flow_8_12_0_0 + flow_9_12_0_0
   + flow_10_12_0_0 - flow_12_2_0_0 - flow_12_3_0_0 - flow_12_4_0_0
   - flow_12_5_0_0 - flow_12_6_0_0 - flow_12_7_0_0 - flow_12_9_0_0
   - flow_12_10_0_0 - flow_12_13_0_0 - flow_12_14_0_0 - flow_12_15_0_0
   - flow_12_16_0_0 - flow_12_17_0_0 - flow_12_18_0_0 + flow_13_12_0_0
   + flow_15_12_0_0 + flow_16_12_0_0 + flow_17_12_0_0 = 1
 one_parent_13: edge_2_13_0_0 + edge_3_13_0_0 + edge_4_13_0_0
   + edge_7_13_0_0 + edge_8_13_0_0 + edge_9_13_0_0 + edge_10_13_0_0
   + edge_12_13_0_0 + edge_14_13_0_0 + edge_15_13_0_0 + edge_16_13_0_0
   + edge_17_13_0_0 = 1
 consume_one_flow_unit_13: flow_2_13_0_0 + flow_3_13_0_0 + flow_4_13_0_0
   + flow_7_13_0_0 + flow_8_13_0_0 + flow_9_13_0_0 + flow_10_13_0_0
   + flow_12_13_0_0 - flow_13_10_0_0 - flow_13_12_0_0 - flow_13_14_0_0
   + flow_14_13_0_0 + flow_15_13_0_0 + flow_16_13_0_0 + flow_17_13_0_0 = 1
 one_parent_14: edge_2_14_0_0 + edge_3_14_0_0 + edge_4_14_0_0
   + edge_7_14_0_0 + edge_8_14_0_0 + edge_9_14_0_0 + edge_10_14_0_0
   + edge_12_14_0_0 + edge_13_14_0_0 + edge_15_14_0_0 + edge_16_14_0_0
   + edge_17_14_0_0 = 1
 consume_one_flow_unit_14: flow_2_14_0_0 + flow_3_14_0_0 + flow_4_14_0_0
   + flow_7_14_0_0 + flow_8_14_0_0 + flow_9_14_0_0 + flow_10_14_0_0
   + flow_12_14_0_0 + flow_13_14_0_0 - flow_14_10_0_0 - flow_14_13_0_0
   - flow_14_15_0_0 - flow_14_16_0_0 - flow_14_17_0_0 + flow_15_14_0_0
   + flow_16_14_0_0 + flow_17_14_0_0 = 1
 one_parent_15: edge_0_15_0_0 + edge_1_15_0_0 + edge_2_15_0_0
   + edge_3_15_0_0 + edge_4_15_0_0 + edge_7_15_0_0 + edge_8_15_0_0
   + edge_9_15_0_0 + edge_10_15_0_0 + edge_12_15_0_0 + edge_14_15_0_0
   + edge_16_15_0_0 + edge_17_15_0_0 = 1
 consume_one_flow_unit_15: flow_0_15_0_0 + flow_1_15_0_0 + flow_2_15_0_0
   + flow_3_15_0_0 + flow_4_15_0_0 + flow_7_15_0_0 + flow_8_15_0_0
   + flow_9_15_0_0 + flow_10_15_0_0 + flow_12_15_0_0 + flow_14_15_0_0
   - flow_15_1_0_0 - flow_15_3_0_0 - flow_15_9_0_0 - flow_15_10_0_0
   - flow_15_12_0_0 - flow_15_13_0_0 - flow_15_14_0_0 - flow_15_16_0_0
   - flow_15_17_0_0 - flow_15_18_0_0 + flow_16_15_0_0 + flow_17_15_0_0 = 1
 one_parent_16: edge_0_16_0_0 + edge_1_16_0_0 + edge_2_16_0_0
   + edge_3_16_0_0 + edge_4_16_0_0 + edge_7_16_0_0 + edge_8_16_0_0
   + edge_9_16_0_0 + edge_10_16_0_0 + edge_12_16_0_0 + edge_14_16_0_0
   + edge_15_16_0_0 + edge_16_16_0_0 + edge_17_16_0_0 + edge_18_16_0_0 = 1
 consume_one_flow_unit_16: flow_0_16_0_0 + flow_1_16_0_0 + flow_2_16_0_0
   + flow_3_16_0_0 + flow_4_16_0_0 + flow_7_16_0_0 + flow_8_16_0_0
   + flow_9_16_0_0 + flow_10_16_0_0 + flow_12_16_0_0 + flow_14_16_0_0
   + flow_15_16_0_0 - flow_16_1_0_0 - flow_16_2_0_0 - flow_16_3_0_0
   - flow_16_4_0_0 - flow_16_5_0_0 - flow_16_6_0_0 - flow_16_7_0_0
   - flow_16_9_0_0 - flow_16_10_0_0 - flow_16_12_0_0 - flow_16_13_0_0
   - flow_16_14_0_0 - flow_16_15_0_0 - flow_16_17_0_0 - flow_16_18_0_0
   + flow_17_16_0_0 + flow_18_16_0_0 = 1
 one_parent_17: edge_0_17_0_0 + edge_1_17_0_0 + edge_2_17_0_0
   + edge_3_17_0_0 + edge_4_17_0_0 + edge_7_17_0_0 + edge_8_17_0_0
   + edge_9_17_0_0 + edge_12_17_0_0 + edge_14_17_0_0 + edge_15_17_0_0
   + edge_16_17_0_0 = 1
 consume_one_flow_unit_17: flow_0_17_0_0 + flow_1_17_0_0 + flow_2_17_0_0
   + flow_3_17_0_0 + flow_4_17_0_0 + flow_7_17_0_0 + flow_8_17_0_0
   + flow_9_17_0_0 + flow_12_17_0_0 + flow_14_17_0_0 + flow_15_17_0_0
   + flow_16_17_0_0 - flow_17_1_0_0 - flow_17_2_0_0 - flow_17_3_0_0
   - flow_17_4_0_0 - flow_17_5_0_0 - flow_17_6_0_0 - flow_17_7_0_0
   - flow_17_9_0_0 - flow_17_10_0_0 - flow_17_12_0_0 - flow_17_13_0_0
   - flow_17_14_0_0 - flow_17_15_0_0 - flow_17_16_0_0 - flow_17_18_0_0 = 1
 one_parent_18: edge_1_18_0_0 + edge_2_18_0_0 + edge_3_18_0_0
   + edge_4_18_0_0 + edge_6_18_0_0 + edge_7_18_0_0 + edge_8_18_0_0
   + edge_9_18_0_0 + edge_12_18_0_0 + edge_15_18_0_0 + edge_16_18_0_0
   + edge_17_18_0_0 = 1
 consume_one_flow_unit_18: flow_1_18_0_0 + flow_2_18_0_0 + flow_3_18_0_0
   + flow_4_18_0_0 + flow_6_18_0_0 + flow_7_18_0_0 + flow_8_18_0_0
   + flow_9_18_0_0 + flow_12_18_0_0 + flow_15_18_0_0 + flow_16_18_0_0
   + flow_17_18_0_0 - flow_18_16_0_0 = 1
 root_flow: flow_0_1_0_0 + flow_0_2_0_0 + flow_0_3_0_0 + flow_0_4_0_0
   + flow_0_5_0_0 + flow_0_7_0_0 + flow_0_8_0_0 + flow_0_9_0_0
   + flow_0_12_0_0 + flow_0_15_0_0 + flow_0_16_0_0 + flow_0_17_0_0 = 18
 inactive_no_flow_0_1_0_0: flow_0_1_0_0 - 1000 edge_0_1_0_0 <= 0
 inactive_no_flow_0_2_0_0: flow_0_2_0_0 - 1000 edge_0_2_0_0 <= 0
 inactive_no_flow_0_3_0_0: flow_0_3_0_0 - 1000 edge_0_3_0_0 <= 0
 inactive_no_flow_0_4_0_0: flow_0_4_0_0 - 1000 edge_0_4_0_0 <= 0
 inactive_no_flow_0_5_0_0: flow_0_5_0_0 - 1000 edge_0_5_0_0 <= 0
 inactive_no_flow_0_7_0_0: flow_0_7_0_0 - 1000 edge_0_7_0_0 <= 0
 inactive_no_flow_0_8_0_0: flow_0_8_0_0 - 1000 edge_0_8_0_0 <= 0
 inactive_no_flow_0_9_0_0: flow_0_9_0_0 - 1000 edge_0_9_0_0 <= 0
 inactive_no_flow_0_12_0_0: flow_0_12_0_0 - 1000 edge_0_12_0_0 <= 0
 inactive_no_flow_0_15_0_0: flow_0_15_0_0 - 1000 edge_0_15_0_0 <= 0
 inactive_no_flow_0_16_0_0: flow_0_16_0_0 - 1000 edge_0_16_0_0 <= 0
 inactive_no_flow_0_17_0_0: flow_0_17_0_0 - 1000 edge_0_17_0_0 <= 0
 inactive_no_flow_1_2_0_0: flow_1_2_0_0 - 1000 edge_1_2_0_0 <= 0
 inactive_no_flow_1_3_0_0: flow_1_3_0_0 - 1000 edge_1_3_0_0 <= 0
 inactive_no_flow_1_4_0_0: flow_1_4_0_0 - 1000 edge_1_4_0_0 <= 0
 inactive_no_flow_1_5_0_0: flow_1_5_0_0 - 1000 edge_1_5_0_0 <= 0
 inactive_no_flow_1_8_0_0: flow_1_8_0_0 - 1000 edge_1_8_0_0 <= 0
 inactive_no_flow_1_15_0_0: flow_1_15_0_0 - 1000 edge_1_15_0_0 <= 0
 inactive_no_flow_1_16_0_0: flow_1_16_0_0 - 1000 edge_1_16_0_0 <= 0
 inactive_no_flow_1_17_0_0: flow_1_17_0_0 - 1000 edge_1_17_0_0 <= 0
 inactive_no_flow_1_18_0_0: flow_1_18_0_0 - 1000 edge_1_18_0_0 <= 0
 inactive_no_flow_2_1_0_0: flow_2_1_0_0 - 1000 edge_2_1_0_0 <= 0
 inactive_no_flow_2_3_0_0: flow_2_3_0_0 - 1000 edge_2_3_0_0 <= 0
 inactive_no_flow_2_4_0_0: flow_2_4_0_0 - 1000 edge_2_4_0_0 <= 0
 inactive_no_flow_2_5_0_0: flow_2_5_0_0 - 1000 edge_2_5_0_0 <= 0
 inactive_no_flow_2_6_0_0: flow_2_6_0_0 - 1000 edge_2_6_0_0 <= 0
 inactive_no_flow_2_7_0_0: flow_2_7_0_0 - 1000 edge_2_7_0_0 <= 0
 inactive_no_flow_2_8_0_0: flow_2_8_0_0 - 1000 edge_2_8_0_0 <= 0
 inactive_no_flow_2_9_0_0: flow_2_9_0_0 - 1000 edge_2_9_0_0 <= 0
 inactive_no_flow_2_12_0_0: flow_2_12_0_0 - 1000 edge_2_12_0_0 <= 0
 inactive_no_flow_2_13_0_0: flow_2_13_0_0 - 1000 edge_2_13_0_0 <= 0
 inactive_no_flow_2_14_0_0: flow_2_14_0_0 - 1000 edge_2_14_0_0 <= 0
 inactive_no_flow_2_15_0_0: flow_2_15_0_0 - 1000 edge_2_15_0_0 <= 0
 inactive_no_flow_2_16_0_0: flow_2_16_0_0 - 1000 edge_2_16_0_0 <= 0
 inactive_no_flow_2_17_0_0: flow_2_17_0_0 - 1000 edge_2_17_0_0 <= 0
 inactive_no_flow_2_18_0_0: flow_2_18_0_0 - 1000 edge_2_18_0_0 <= 0
 inactive_no_flow_3_1_0_0: flow_3_1_0_0 - 1000 edge_3_1_0_0 <= 0
 inactive_no_flow_3_2_0_0: flow_3_2_0_0 - 1000 edge_3_2_0_0 <= 0
 inactive_no_flow_3_3_0_0: flow_3_3_0_0 - 1000 edge_3_3_0_0 <= 0
 inactive_no_flow_3_4_0_0: flow_3_4_0_0 - 1000 edge_3_4_0_0 <= 0
 inactive_no_flow_3_5_0_0: flow_3_5_0_0 - 1000 edge_3_5_0_0 <= 0
 inactive_no_flow_3_6_0_0: flow_3_6_0_0 - 1000 edge_3_6_0_0 <= 0
 inactive_no_flow_3_7_0_0: flow_3_7_0_0 - 1000 edge_3_7_0_0 <= 0
 inactive_no_flow_3_8_0_0: flow_3_8_0_0 - 1000 edge_3_8_0_0 <= 0
 inactive_no_flow_3_9_0_0: flow_3_9_0_0 - 1000 edge_3_9_0_0 <= 0
 inactive_no_flow_3_10_0_0: flow_3_10_0_0 - 1000 edge_3_10_0_0 <= 0
 inactive_no_flow_3_12_0_0: flow_3_12_0_0 - 1000 edge_3_12_0_0 <= 0
 inactive_no_flow_3_13_0_0: flow_3_13_0_0 - 1000 edge_3_13_0_0 <= 0
 inactive_no_flow_3_14_0_0: flow_3_14_0_0 - 1000 edge_3_14_0_0 <= 0
 inactive_no_flow_3_15_0_0: flow_3_15_0_0 - 1000 edge_3_15_0_0 <= 0
 inactive_no_flow_3_16_0_0: flow_3_16_0_0 - 1000 edge_3_16_0_0 <= 0
 inactive_no_flow_3_17_0_0: flow_3_17_0_0 - 1000 edge_3_17_0_0 <= 0
 inactive_no_flow_3_18_0_0: flow_3_18_0_0 - 1000 edge_3_18_0_0 <= 0
 inactive_no_flow_4_1_0_0: flow_4_1_0_0 - 1000 edge_4_1_0_0 <= 0
 inactive_no_flow_4_2_0_0: flow_4_2_0_0 - 1000 edge_4_2_0_0 <= 0
 inactive_no_flow_4_3_0_0: flow_4_3_0_0 - 1000 edge_4_3_0_0 <= 0
 inactive_no_flow_4_5_0_0: flow_4_5_0_0 - 1000 edge_4_5_0_0 <= 0
 inactive_no_flow_4_6_0_0: flow_4_6_0_0 - 1000 edge_4_6_0_0 <= 0
 inactive_no_flow_4_7_0_0: flow_4_7_0_0 - 1000 edge_4_7_0_0 <= 0
 inactive_no_flow_4_8_0_0: flow_4_8_0_0 - 1000 edge_4_8_0_0 <= 0
 inactive_no_flow_4_9_0_0: flow_4_9_0_0 - 1000 edge_4_9_0_0 <= 0
 inactive_no_flow_4_10_0_0: flow_4_10_0_0 - 1000 edge_4_10_0_0 <= 0
 inactive_no_flow_4_12_0_0: flow_4_12_0_0 - 1000 edge_4_12_0_0 <= 0
 inactive_no_flow_4_13_0_0: flow_4_13_0_0 - 1000 edge_4_13_0_0 <= 0
 inactive_no_flow_4_14_0_0: flow_4_14_0_0 - 1000 edge_4_14_0_0 <= 0
 inactive_no_flow_4_15_0_0: flow_4_15_0_0 - 1000 edge_4_15_0_0 <= 0
 inactive_no_flow_4_16_0_0: flow_4_16_0_0 - 1000 edge_4_16_0_0 <= 0
 inactive_no_flow_4_17_0_0: flow_4_17_0_0 - 1000 edge_4_17_0_0 <= 0
 inactive_no_flow_4_18_0_0: flow_4_18_0_0 - 1000 edge_4_18_0_0 <= 0
 inactive_no_flow_5_1_0_0: flow_5_1_0_0 - 1000 edge_5_1_0_0 <= 0
 inactive_no_flow_5_2_0_0: flow_5_2_0_0 - 1000 edge_5_2_0_0 <= 0
 inactive_no_flow_5_3_0_0: flow_5_3_0_0 - 1000 edge_5_3_0_0 <= 0
 inactive_no_flow_5_4_0_0: flow_5_4_0_0 - 1000 edge_5_4_0_0 <= 0
 inactive_no_flow_5_6_0_0: flow_5_6_0_0 - 1000 edge_5_6_0_0 <= 0
 inactive_no_flow_5_7_0_0: flow_5_7_0_0 - 1000 edge_5_7_0_0 <= 0
 inactive_no_flow_5_8_0_0: flow_5_8_0_0 - 1000 edge_5_8_0_0 <= 0
 inactive_no_flow_6_2_0_0: flow_6_2_0_0 - 1000 edge_6_2_0_0 <= 0
 inactive_no_flow_6_3_0_0: flow_6_3_0_0 - 1000 edge_6_3_0_0 <= 0
 inactive_no_flow_6_4_0_0: flow_6_4_0_0 - 1000 edge_6_4_0_0 <= 0
 inactive_no_flow_6_5_0_0: flow_6_5_0_0 - 1000 edge_6_5_0_0 <= 0
 inactive_no_flow_6_6_0_0: flow_6_6_0_0 - 1000 edge_6_6_0_0 <= 0
 inactive_no_flow_6_7_0_0: flow_6_7_0_0 - 1000 edge_6_7_0_0 <= 0
 inactive_no_flow_6_8_0_0: flow_6_8_0_0 - 1000 edge_6_8_0_0 <= 0
 inactive_no_flow_6_9_0_0: flow_6_9_0_0 - 1000 edge_6_9_0_0 <= 0
 inactive_no_flow_6_10_0_0: flow_6_10_0_0 - 1000 edge_6_10_0_0 <= 0
 inactive_no_flow_6_18_0_0: flow_6_18_0_0 - 1000 edge_6_18_0_0 <= 0
 inactive_no_flow_7_2_0_0: flow_7_2_0_0 - 1000 edge_7_2_0_0 <= 0
 inactive_no_flow_7_3_0_0: flow_7_3_0_0 - 1000 edge_7_3_0_0 <= 0
 inactive_no_flow_7_4_0_0: flow_7_4_0_0 - 1000 edge_7_4_0_0 <= 0
 inactive_no_flow_7_5_0_0: flow_7_5_0_0 - 1000 edge_7_5_0_0 <= 0
 inactive_no_flow_7_6_0_0: flow_7_6_0_0 - 1000 edge_7_6_0_0 <= 0
 inactive_no_flow_7_8_0_0: flow_7_8_0_0 - 1000 edge_7_8_0_0 <= 0
 inactive_no_flow_7_9_0_0: flow_7_9_0_0 - 1000 edge_7_9_0_0 <= 0
 inactive_no_flow_7_10_0_0: flow_7_10_0_0 - 1000 edge_7_10_0_0 <= 0
 inactive_no_flow_7_12_0_0: flow_7_12_0_0 - 1000 edge_7_12_0_0 <= 0
 inactive_no_flow_7_13_0_0: flow_7_13_0_0 - 1000 edge_7_13_0_0 <= 0
 inactive_no_flow_7_14_0_0: flow_7_14_0_0 - 1000 edge_7_14_0_0 <= 0
 inactive_no_flow_7_15_0_0: flow_7_15_0_0 - 1000 edge_7_15_0_0 <= 0
 inactive_no_flow_7_16_0_0: flow_7_16_0_0 - 1000 edge_7_16_0_0 <= 0
 inactive_no_flow_7_17_0_0: flow_7_17_0_0 - 1000 edge_7_17_0_0 <= 0
 inactive_no_flow_7_18_0_0: flow_7_18_0_0 - 1000 edge_7_18_0_0 <= 0
 inactive_no_flow_8_1_0_0: flow_8_1_0_0 - 1000 edge_8_1_0_0 <= 0
 inactive_no_flow_8_2_0_0: flow_8_2_0_0 - 1000 edge_8_2_0_0 <= 0
 inactive_no_flow_8_3_0_0: flow_8_3_0_0 - 1000 edge_8_3_0_0 <= 0
 inactive_no_flow_8_4_0_0: flow_8_4_0_0 - 1000 edge_8_4_0_0 <= 0
 inactive_no_flow_8_5_0_0: flow_8_5_0_0 - 1000 edge_8_5_0_0 <= 0
 inactive_no_flow_8_6_0_0: flow_8_6_0_0 - 1000 edge_8_6_0_0 <= 0
 inactive_no_flow_8_7_0_0: flow_8_7_0_0 - 1000 edge_8_7_0_0 <= 0
 inactive_no_flow_8_9_0_0: flow_8_9_0_0 - 1000 edge_8_9_0_0 <= 0
 inactive_no_flow_8_10_0_0: flow_8_10_0_0 - 1000 edge_8_10_0_0 <= 0
 inactive_no_flow_8_12_0_0: flow_8_12_0_0 - 1000 edge_8_12_0_0 <= 0
 inactive_no_flow_8_13_0_0: flow_8_13_0_0 - 1000 edge_8_13_0_0 <= 0
 inactive_no_flow_8_14_0_0: flow_8_14_0_0 - 1000 edge_8_14_0_0 <= 0
 inactive_no_flow_8_15_0_0: flow_8_15_0_0 - 1000 edge_8_15_0_0 <= 0
 inactive_no_flow_8_16_0_0: flow_8_16_0_0 - 1000 edge_8_16_0_0 <= 0
 inactive_no_flow_8_17_0_0: flow_8_17_0_0 - 1000 edge_8_17_0_0 <= 0
 inactive_no_flow_8_18_0_0: flow_8_18_0_0 - 1000 edge_8_18_0_0 <= 0
 inactive_no_flow_9_1_0_0: flow_9_1_0_0 - 1000 edge_9_1_0_0 <= 0
 inactive_no_flow_9_2_0_0: flow_9_2_0_0 - 1000 edge_9_2_0_0 <= 0
 inactive_no_flow_9_3_0_0: flow_9_3_0_0 - 1000 edge_9_3_0_0 <= 0
 inactive_no_flow_9_4_0_0: flow_9_4_0_0 - 1000 edge_9_4_0_0 <= 0
 inactive_no_flow_9_5_0_0: flow_9_5_0_0 - 1000 edge_9_5_0_0 <= 0
 inactive_no_flow_9_6_0_0: flow_9_6_0_0 - 1000 edge_9_6_0_0 <= 0
 inactive_no_flow_9_7_0_0: flow_9_7_0_0 - 1000 edge_9_7_0_0 <= 0
 inactive_no_flow_9_8_0_0: flow_9_8_0_0 - 1000 edge_9_8_0_0 <= 0
 inactive_no_flow_9_10_0_0: flow_9_10_0_0 - 1000 edge_9_10_0_0 <= 0
 inactive_no_flow_9_12_0_0: flow_9_12_0_0 - 1000 edge_9_12_0_0 <= 0
 inactive_no_flow_9_13_0_0: flow_9_13_0_0 - 1000 edge_9_13_0_0 <= 0
 inactive_no_flow_9_14_0_0: flow_9_14_0_0 - 1000 edge_9_14_0_0 <= 0
 inactive_no_flow_9_15_0_0: flow_9_15_0_0 - 1000 edge_9_15_0_0 <= 0
 inactive_no_flow_9_16_0_0: flow_9_16_0_0 - 1000 edge_9_16_0_0 <= 0
 inactive_no_flow_9_17_0_0: flow_9_17_0_0 - 1000 edge_9_17_0_0 <= 0
 inactive_no_flow_9_18_0_0: flow_9_18_0_0 - 1000 edge_9_18_0_0 <= 0
 inactive_no_flow_10_9_0_0: flow_10_9_0_0 - 1000 edge_10_9_0_0 <= 0
 inactive_no_flow_10_12_0_0: flow_10_12_0_0 - 1000 edge_10_12_0_0 <= 0
 inactive_no_flow_10_13_0_0: flow_10_13_0_0 - 1000 edge_10_13_0_0 <= 0
 inactive_no_flow_10_14_0_0: flow_10_14_0_0 - 1000 edge_10_14_0_0 <= 0
 inactive_no_flow_10_15_0_0: flow_10_15_0_0 - 1000 edge_10_15_0_0 <= 0
 inactive_no_flow_10_16_0_0: flow_10_16_0_0 - 1000 edge_10_16_0_0 <= 0
 inactive_no_flow_12_2_0_0: flow_12_2_0_0 - 1000 edge_12_2_0_0 <= 0
 inactive_no_flow_12_3_0_0: flow_12_3_0_0 - 1000 edge_12_3_0_0 <= 0
 inactive_no_flow_12_4_0_0: flow_12_4_0_0 - 1000 edge_12_4_0_0 <= 0
 inactive_no_flow_12_5_0_0: flow_12_5_0_0 - 1000 edge_12_5_0_0 <= 0
 inactive_no_flow_12_6_0_0: flow_12_6_0_0 - 1000 edge_12_6_0_0 <= 0
 inactive_no_flow_12_7_0_0: flow_12_7_0_0 - 1000 edge_12_7_0_0 <= 0
 inactive_no_flow_12_9_0_0: flow_12_9_0_0 - 1000 edge_12_9_0_0 <= 0
 inactive_no_flow_12_10_0_0: flow_12_10_0_0 - 1000 edge_12_10_0_0 <= 0
 inactive_no_flow_12_13_0_0: flow_12_13_0_0 - 1000 edge_12_13_0_0 <= 0
 inactive_no_flow_12_14_0_0: flow_12_14_0_0 - 1000 edge_12_14_0_0 <= 0
 inactive_no_flow_12_15_0_0: flow_12_15_0_0 - 1000 edge_12_15_0_0 <= 0
 inactive_no_flow_12_16_0_0: flow_12_16_0_0 - 1000 edge_12_16_0_0 <= 0
 inactive_no_flow_12_17_0_0: flow_12_17_0_0 - 1000 edge_12_17_0_0 <= 0
 inactive_no_flow_12_18_0_0: flow_12_18_0_0 - 1000 edge_12_18_0_0 <= 0
 inactive_no_flow_13_10_0_0: flow_13_10_0_0 - 1000 edge_13_10_0_0 <= 0
 inactive_no_flow_13_12_0_0: flow_13_12_0_0 - 1000 edge_13_12_0_0 <= 0
 inactive_no_flow_13_14_0_0: flow_13_14_0_0 - 1000 edge_13_14_0_0 <= 0
 inactive_no_flow_14_10_0_0: flow_14_10_0_0 - 1000 edge_14_10_0_0 <= 0
 inactive_no_flow_14_13_0_0: flow_14_13_0_0 - 1000 edge_14_13_0_0 <= 0
 inactive_no_flow_14_15_0_0: flow_14_15_0_0 - 1000 edge_14_15_0_0 <= 0
 inactive_no_flow_14_16_0_0: flow_14_16_0_0 - 1000 edge_14_16_0_0 <= 0
 inactive_no_flow_14_17_0_0: flow_14_17_0_0 - 1000 edge_14_17_0_0 <= 0
 inactive_no_flow_15_1_0_0: flow_15_1_0_0 - 1000 edge_15_1_0_0 <= 0
 inactive_no_flow_15_3_0_0: flow_15_3_0_0 - 1000 edge_15_3_0_0 <= 0
 inactive_no_flow_15_9_0_0: flow_15_9_0_0 - 1000 edge_15_9_0_0 <= 0
 inactive_no_flow_15_10_0_0: flow_15_10_0_0 - 1000 edge_15_10_0_0 <= 0
 inactive_no_flow_15_12_0_0: flow_15_12_0_0 - 1000 edge_15_12_0_0 <= 0
 inactive_no_flow_15_13_0_0: flow_15_13_0_0 - 1000 edge_15_13_0_0 <= 0
 inactive_no_flow_15_14_0_0: flow_15_14_0_0 - 1000 edge_15_14_0_0 <= 0
 inactive_no_flow_15_16_0_0: flow_15_16_0_0 - 1000 edge_15_16_0_0 <= 0
 inactive_no_flow_15_17_0_0: flow_15_17_0_0 - 1000 edge_15_17_0_0 <= 0
 inactive_no_flow_15_18_0_0: flow_15_18_0_0 - 1000 edge_15_18_0_0 <= 0
 inactive_no_flow_16_1_0_0: flow_16_1_0_0 - 1000 edge_16_1_0_0 <= 0
 inactive_no_flow_16_2_0_0: flow_16_2_0_0 - 1000 edge_16_2_0_0 <= 0
 inactive_no_flow_16_3_0_0: flow_16_3_0_0 - 1000 edge_16_3_0_0 <= 0
 inactive_no_flow_16_4_0_0: flow_16_4_0_0 - 1000 edge_16_4_0_0 <= 0
 inactive_no_flow_16_5_0_0: flow_16_5_0_0 - 1000 edge_16_5_0_0 <= 0
 inactive_no_flow_16_6_0_0: flow_16_6_0_0 - 1000 edge_16_6_0_0 <= 0
 inactive_no_flow_16_7_0_0: flow_16_7_0_0 - 1000 edge_16_7_0_0 <= 0
 inactive_no_flow_16_9_0_0: flow_16_9_0_0 - 1000 edge_16_9_0_0 <= 0
 inactive_no_flow_16_10_0_0: flow_16_10_0_0 - 1000 edge_16_10_0_0 <= 0
 inactive_no_flow_16_12_0_0: flow_16_12_0_0 - 1000 edge_16_12_0_0 <= 0
 inactive_no_flow_16_13_0_0: flow_16_13_0_0 - 1000 edge_16_13_0_0 <= 0
 inactive_no_flow_16_14_0_0: flow_16_14_0_0 - 1000 edge_16_14_0_0 <= 0
 inactive_no_flow_16_15_0_0: flow_16_15_0_0 - 1000 edge_16_15_0_0 <= 0
 inactive_no_flow_16_16_0_0: flow_16_16_0_0 - 1000 edge_16_16_0_0 <= 0
 inactive_no_flow_16_17_0_0: flow_16_17_0_0 - 1000 edge_16_17_0_0 <= 0
 inactive_no_flow_16_18_0_0: flow_16_18_0_0 - 1000 edge_16_18_0_0 <= 0
 inactive_no_flow_17_1_0_0: flow_17_1_0_0 - 1000 edge_17_1_0_0 <= 0
 inactive_no_flow_17_2_0_0: flow_17_2_0_0 - 1000 edge_17_2_0_0 <= 0
 inactive_no_flow_17_3_0_0: flow_17_3_0_0 - 1000 edge_17_3_0_0 <= 0
 inactive_no_flow_17_4_0_0: flow_17_4_0_0 - 1000 edge_17_4_0_0 <= 0
 inactive_no_flow_17_5_0_0: flow_17_5_0_0 - 1000 edge_17_5_0_0 <= 0
 inactive_no_flow_17_6_0_0: flow_17_6_0_0 - 1000 edge_17_6_0_0 <= 0
 inactive_no_flow_17_7_0_0: flow_17_7_0_0 - 1000 edge_17_7_0_0 <= 0
 inactive_no_flow_17_9_0_0: flow_17_9_0_0 - 1000 edge_17_9_0_0 <= 0
 inactive_no_flow_17_10_0_0: flow_17_10_0_0 - 1000 edge_17_10_0_0 <= 0
 inactive_no_flow_17_12_0_0: flow_17_12_0_0 - 1000 edge_17_12_0_0 <= 0
 inactive_no_flow_17_13_0_0: flow_17_13_0_0 - 1000 edge_17_13_0_0 <= 0
 inactive_no_flow_17_14_0_0: flow_17_14_0_0 - 1000 edge_17_14_0_0 <= 0
 inactive_no_flow_17_15_0_0: flow_17_15_0_0 - 1000 edge_17_15_0_0 <= 0
 inactive_no_flow_17_16_0_0: flow_17_16_0_0 - 1000 edge_17_16_0_0 <= 0
 inactive_no_flow_17_18_0_0: flow_17_18_0_0 - 1000 edge_17_18_0_0 <= 0
 inactive_no_flow_18_16_0_0: flow_18_16_0_0 - 1000 edge_18_16_0_0 <= 0
Bounds
Binaries
 edge_0_1_0_0 edge_0_2_0_0 edge_0_3_0_0 edge_0_4_0_0 edge_0_5_0_0
 edge_0_7_0_0 edge_0_8_0_0 edge_0_9_0_0 edge_0_12_0_0 edge_0_15_0_0
 edge_0_16_0_0 edge_0_17_0_0 edge_1_2_0_0 edge_1_3_0_0 edge_1_4_0_0
 edge_1_5_0_0 edge_1_8_0_0 edge_1_15_0_0 edge_1_16_0_0 edge_1_17_0_0
 edge_1_18_0_0 edge_2_1_0_0 edge_2_3_0_0 edge_2_4_0_0 edge_2_5_0_0
 edge_2_6_0_0 edge_2_7_0_0 edge_2_8_0_0 edge_2_9_0_0 edge_2_12_0_0
 edge_2_13_0_0 edge_2_14_0_0 edge_2_15_0_0 edge_2_16_0_0 edge_2_17_0_0
 edge_2_18_0_0 edge_3_1_0_0 edge_3_2_0_0 edge_3_3_0_0 edge_3_4_0_0
 edge_3_5_0_0 edge_3_6_0_0 edge_3_7_0_0 edge_3_8_0_0 edge_3_9_0_0
 edge_3_10_0_0 edge_3_12_0_0 edge_3_13_0_0 edge_3_14_0_0 edge_3_15_0_0
 edge_3_16_0_0 edge_3_17_0_0 edge_3_18_0_0 edge_4_1_0_0 edge_4_2_0_0
 edge_4_3_0_0 edge_4_5_0_0 edge_4_6_0_0 edge_4_7_0_0 edge_4_8_0_0
 edge_4_9_0_0 edge_4_10_0_0 edge_4_12_0_0 edge_4_13_0_0 edge_4_14_0_0
 edge_4_15_0_0 edge_4_16_0_0 edge_4_17_0_0 edge_4_18_0_0 edge_5_1_0_0
 edge_5_2_0_0 edge_5_3_0_0 edge_5_4_0_0 edge_5_6_0_0 edge_5_7_0_0
 edge_5_8_0_0 edge_6_2_0_0 edge_6_3_0_0 edge_6_4_0_0 edge_6_5_0_0
 edge_6_6_0_0 edge_6_7_0_0 edge_6_8_0_0 edge_6_9_0_0 edge_6_10_0_0
 edge_6_18_0_0 edge_7_2_0_0 edge_7_3_0_0 edge_7_4_0_0 edge_7_5_0_0
 edge_7_6_0_0 edge_7_8_0_0 edge_7_9_0_0 edge_7_10_0_0 edge_7_12_0_0
 edge_7_13_0_0 edge_7_14_0_0 edge_7_15_0_0 edge_7_16_0_0 edge_7_17_0_0
 edge_7_18_0_0 edge_8_1_0_0 edge_8_2_0_0 edge_8_3_0_0 edge_8_4_0_0
 edge_8_5_0_0 edge_8_6_0_0 edge_8_7_0_0 edge_8_9_0_0 edge_8_10_0_0
 edge_8_12_0_0 edge_8_13_0_0 edge_8_14_0_0 edge_8_15_0_0 edge_8_16_0_0
 edge_8_17_0_0 edge_8_18_0_0 edge_9_1_0_0 edge_9_2_0_0 edge_9_3_0_0
 edge_9_4_0_0 edge_9_5_0_0 edge_9_6_0_0 edge_9_7_0_0 edge_9_8_0_0
 edge_9_10_0_0 edge_9_12_0_0 edge_9_13_0_0 edge_9_14_0_0 edge_9_15_0_0
 edge_9_16_0_0 edge_9_17_0_0 edge_9_18_0_0 edge_10_9_0_0 edge_10_12_0_0
 edge_10_13_0_0 edge_10_14_0_0 edge_10_15_0_0 edge_10_16_0_0 edge_12_2_0_0
 edge_12_3_0_0 edge_12_4_0_0 edge_12_5_0_0 edge_12_6_0_0 edge_12_7_0_0
 edge_12_9_0_0 edge_12_10_0_0 edge_12_13_0_0 edge_12_14_0_0 edge_12_15_0_0
 edge_12_16_0_0 edge_12_17_0_0 edge_12_18_0_0 edge_13_10_0_0 edge_13_12_0_0
 edge_13_14_0_0 edge_14_10_0_0 edge_14_13_0_0 edge_14_15_0_0 edge_14_16_0_0
 edge_14_17_0_0 edge_15_1_0_0 edge_15_3_0_0 edge_15_9_0_0 edge_15_10_0_0
 edge_15_12_0_0 edge_15_13_0_0 edge_15_14_0_0 edge_15_16_0_0 edge_15_17_0_0
 edge_15_18_0_0 edge_16_1_0_0 edge_16_2_0_0 edge_16_3_0_0 edge_16_4_0_0
 edge_16_5_0_0 edge_16_6_0_0 edge_16_7_0_0 edge_16_9_0_0 edge_16_10_0_0
 edge_16_12_0_0 edge_16_13_0_0 edge_16_14_0_0 edge_16_15_0_0 edge_16_16_0_0
 edge_16_17_0_0 edge_16_18_0_0 edge_17_1_0_0 edge_17_2_0_0 edge_17_3_0_0
 edge_17_4_0_0 edge_17_5_0_0 edge_17_6_0_0 edge_17_7_0_0 edge_17_9_0_0
 edge_17_10_0_0 edge_17_12_0_0 edge_17_13_0_0 edge_17_14_0_0 edge_17_15_0_0
 edge_17_16_0_0 edge_17_18_0_0 edge_18_16_0_0
End
